networks/zoo_28_42/zoo_28_42-lower.txt
Number of groups: 9
Flow 7: {6 7 0} {7 22 0} 
Flow 10: {13 5 0} {5 12 0} {12 27 0} 
Flow 16: {9 8 0} {8 11 0} {11 10 0} {10 2 0} {2 13 0} {13 28 0} 
Flow 19: {11 8 0} {8 9 0} {9 6 0} {6 21 0} 
Flow 23: {5 13 0} {13 2 0} {2 17 0} 
Flow 26: {12 15 0} {15 14 0} {14 1 0} {1 7 0} {7 6 0} {6 9 0} {9 24 0} 
Flow 29: {1 16 0} 
Flow 31: {14 15 0} {15 12 0} {12 5 0} {5 20 0} 
Flow 42: {2 10 0} {10 11 0} {11 26 0} 
Time taken running everything: 0 seconds
