networks/zoo_28_42/zoo_28_42-lower.sol
<?xml version = "1.0" encoding="UTF-8" standalone="yes"?>
<CPLEXSolution version="1.2">
 <header
   problemName="networks/zoo_28_42/zoo_28_42-lower.lp"
   solutionName="incumbent"
   solutionIndex="-1"
   objectiveValue="9"
   solutionTypeValue="3"
   solutionTypeString="primal"
   solutionStatusValue="101"
   solutionStatusString="integer optimal solution"
   solutionMethodString="mip"
   primalFeasible="1"
   dualFeasible="1"
   MIPNodes="0"
   MIPIterations="0"
   writeLevel="3"/>
 <quality
   epInt="1.0000000000000001e-05"
   epRHS="9.9999999999999995e-07"
   maxIntInfeas="0"
   maxPrimalInfeas="0"
   maxX="1"
   maxSlack="1"/>
 <variables>
  <variable name="Y(1,6)" index="3" value="1"/>
  <variable name="Y(3,11)" index="52" value="1"/>
  <variable name="Y(4,2)" index="67" value="1"/>
  <variable name="Y(5,5)" index="90" value="1"/>
  <variable name="Y(7,7)" index="136" value="1"/>
  <variable name="Y(8,9)" index="160" value="1"/>
  <variable name="Y(10,12)" index="207" value="1"/>
  <variable name="Y(11,13)" index="230" value="1"/>
  <variable name="Y(29,1)" index="616" value="1"/>
  <variable name="X(1,7,1)" index="924" value="1"/>
  <variable name="X(1,16,29)" index="994" value="1"/>
  <variable name="X(2,10,3)" index="1010" value="1"/>
  <variable name="X(2,13,5)" index="1054" value="1"/>
  <variable name="X(2,17,4)" index="1095" value="1"/>
  <variable name="X(5,12,2)" index="1135" value="1"/>
  <variable name="X(5,13,3)" index="1178" value="1"/>
  <variable name="X(5,20,5)" index="1222" value="1"/>
  <variable name="X(6,7,7)" index="1266" value="1"/>
  <variable name="X(6,9,26)" index="1327" value="1"/>
  <variable name="X(6,21,1)" index="1344" value="1"/>
  <variable name="X(7,6,1)" index="1386" value="1"/>
  <variable name="X(7,22,7)" index="1434" value="1"/>
  <variable name="X(8,9,6)" index="1475" value="1"/>
  <variable name="X(8,11,4)" index="1515" value="1"/>
  <variable name="X(9,6,6)" index="1559" value="1"/>
  <variable name="X(9,8,12)" index="1607" value="1"/>
  <variable name="X(9,24,8)" index="1645" value="1"/>
  <variable name="X(10,2,4)" index="1683" value="1"/>
  <variable name="X(10,11,3)" index="1724" value="1"/>
  <variable name="X(11,8,19)" index="1782" value="1"/>
  <variable name="X(11,10,4)" index="1809" value="1"/>
  <variable name="X(11,26,3)" index="1850" value="1"/>
  <variable name="X(12,5,23)" index="1912" value="1"/>
  <variable name="X(12,15,2)" index="1933" value="1"/>
  <variable name="X(12,27,10)" index="1983" value="1"/>
  <variable name="X(13,2,3)" index="2018" value="1"/>
  <variable name="X(13,5,5)" index="2062" value="1"/>
  <variable name="X(13,28,11)" index="2110" value="1"/>
  <variable name="X(14,1,2)" index="2143" value="1"/>
  <variable name="X(14,15,30)" index="2213" value="1"/>
  <variable name="X(15,12,30)" index="2255" value="1"/>
  <variable name="X(15,14,2)" index="2269" value="1"/>
 </variables>
</CPLEXSolution>
